\* mdp_lp *\
Minimize
OBJ: v_star_0 + v_star_1
Subject To
_C1: - 0.554867281318 v_star_0 + 0.544867281318 v_star_1 <= 0.593665612812
_C2: - 0.36365275085 v_star_0 + 0.35365275085 v_star_1 <= 0.274351056872
_C3: 0.268897845447 v_star_0 - 0.278897874951 v_star_1 <= 0.144614112837
_C4: 0.704572105408 v_star_0 - 0.714572105408 v_star_1 <= 0.517366862895
Bounds
v_star_0 free
v_star_1 free
End
